language ESSENCE' 1.0

letting n_courses be 125
letting n_periods be 28
letting prerequisite_RelationAsSet_Explicit_1 be
        [1, 1, 1, 1, 1, 1, 1, 1, 1, 1, 1, 1, 1, 1, 1, 1, 1, 1, 2, 2, 2, 2, 2, 2, 2, 2, 2, 2, 2, 2, 2, 2, 2, 2, 2, 3, 3,
         3, 3, 3, 3, 3, 3, 3, 3, 3, 3, 3, 3, 3, 3, 3, 4, 4, 4, 4, 4, 4, 4, 4, 5, 5, 5, 5, 5, 5, 5, 5, 5, 5, 5, 5, 5, 5,
         5, 6, 6, 6, 6, 6, 6, 6, 6, 6, 6, 6, 7, 7, 7, 7, 7, 7, 7, 7, 7, 7, 7, 7, 7, 7, 7, 7, 8, 8, 8, 8, 8, 8, 8, 8, 8,
         8, 8, 8, 8, 8, 9, 9, 9, 9, 9, 9, 9, 9, 9, 9, 9, 9, 9, 9, 9, 10, 10, 10, 10, 10, 10, 10, 10, 10, 10, 10, 10, 10,
         10, 10, 10, 10, 10, 11, 11, 11, 11, 11, 11, 11, 11, 11, 11, 11, 11, 11, 11, 12, 12, 12, 12, 12, 12, 12, 12, 12,
         12, 12, 12, 13, 13, 13, 13, 13, 13, 13, 13, 13, 13, 13, 13, 14, 14, 14, 14, 14, 14, 14, 14, 14, 14, 14, 15, 15,
         15, 15, 15, 15, 15, 15, 15, 15, 15, 16, 16, 16, 16, 16, 16, 16, 16, 16, 16, 16, 16, 16, 16, 17, 17, 17, 17, 17,
         17, 17, 17, 17, 17, 17, 17, 17, 17, 18, 18, 18, 18, 18, 18, 18, 18, 18, 18, 18, 18, 19, 19, 19, 19, 19, 19, 19,
         19, 19, 19, 19, 19, 19, 19, 19, 19, 19, 19, 19, 19, 19, 20, 20, 20, 20, 20, 20, 20, 20, 20, 20, 20, 20, 20, 20,
         21, 21, 21, 21, 21, 21, 21, 21, 21, 21, 21, 21, 21, 21, 21, 21, 21, 21, 21, 21, 21, 22, 22, 22, 22, 22, 22, 22,
         22, 22, 22, 22, 22, 22, 23, 23, 23, 23, 23, 23, 23, 23, 23, 23, 23, 23, 23, 23, 23, 23, 23, 23, 24, 24, 24, 24,
         24, 24, 24, 24, 24, 24, 24, 24, 24, 24, 24, 24, 24, 25, 25, 25, 25, 25, 25, 25, 25, 25, 25, 25, 25, 25, 25, 25,
         26, 26, 26, 26, 26, 26, 26, 26, 26, 26, 26, 26, 26, 26, 27, 27, 27, 27, 27, 27, 27, 27, 27, 27, 27, 27, 27, 27,
         27, 27, 27, 27, 27, 28, 28, 28, 28, 28, 28, 28, 28, 28, 28, 28, 28, 28, 28, 28, 28, 28, 29, 29, 29, 29, 29, 29,
         29, 29, 29, 29, 29, 29, 29, 30, 30, 30, 30, 30, 30, 30, 30, 30, 30, 30, 30, 30, 30, 31, 31, 31, 31, 31, 31, 31,
         31, 31, 31, 32, 32, 32, 32, 32, 33, 33, 33, 33, 33, 33, 34, 34, 34, 34, 34, 34, 35, 35, 35, 35, 36, 36, 36, 36,
         36, 37, 37, 37, 37, 37, 37, 37, 38, 38, 38, 38, 38, 38, 38, 38, 38, 38, 39, 39, 39, 39, 39, 39, 39, 39, 40, 40,
         40, 40, 40, 41, 41, 41, 41, 41, 41, 41, 42, 42, 42, 42, 42, 42, 42, 43, 43, 43, 44, 44, 44, 44, 44, 44, 45, 45,
         45, 45, 45, 45, 45, 46, 46, 46, 46, 46, 46, 47, 47, 47, 47, 47, 47, 48, 48, 48, 48, 48, 48, 48, 48, 48, 49, 49,
         49, 49, 49, 49, 49, 50, 50, 50, 50, 50, 50, 50, 51, 51, 51, 51, 51, 51, 51, 51, 51, 51, 52, 52, 52, 52, 52, 52,
         52, 53, 53, 53, 53, 53, 53, 53, 53, 54, 54, 54, 55, 55, 55, 55, 55, 55, 56, 56, 56, 57, 57, 57, 57, 57, 58, 58,
         58, 58, 58, 58, 58, 58, 58, 59, 59, 59, 59, 59, 59, 60, 60, 60, 60, 60, 60, 60, 60, 61, 61, 61, 62, 62, 62, 62,
         63, 63, 63, 63, 63, 63, 63, 63, 63, 63, 63, 63, 63, 63, 64, 64, 64, 64, 64, 64, 64, 64, 65, 65, 65, 65, 65, 65,
         66, 66, 66, 66, 66, 66, 66, 66, 67, 67, 67, 67, 67, 67, 67, 67, 68, 68, 68, 68, 68, 68, 68, 68, 69, 69, 69, 69,
         70, 70, 70, 70, 70, 70, 70, 71, 71, 71, 71, 72, 72, 72, 72, 72, 72, 72, 72, 72, 73, 73, 73, 73, 73, 73, 73, 73,
         74, 74, 74, 74, 74, 74, 74, 74, 75, 75, 75, 75, 75, 76, 76, 76, 76, 76, 76, 76, 76, 76, 76, 77, 77, 77, 78, 78,
         78, 78, 78, 78, 79, 79, 79, 79, 79, 79, 80, 80, 80, 80, 80, 81, 81, 81, 81, 81, 81, 81, 82, 82, 82, 82, 82, 82,
         82, 82, 82, 82, 83, 83, 83, 83, 83, 83, 83, 84, 84, 84, 84, 84, 84, 84, 84, 84, 85, 85, 85, 85, 85, 85, 85, 85,
         86, 86, 86, 86, 86, 86, 86, 86, 87, 87, 87, 87, 87, 87, 87, 88, 88, 88, 88, 88, 88, 88, 89, 89, 89, 89, 89, 89,
         90, 90, 90, 91, 91, 91, 91, 91, 91, 91;
             int(1..854)]
letting prerequisite_RelationAsSet_Explicit_2 be
        [33, 36, 43, 45, 47, 51, 56, 58, 59, 60, 64, 68, 70, 72, 74, 78, 81, 87, 32, 40, 43, 46, 49, 52, 54, 57, 62, 66,
         69, 71, 78, 85, 87, 88, 90, 33, 34, 37, 39, 48, 49, 50, 51, 55, 56, 59, 61, 65, 69, 70, 75, 90, 35, 39, 49, 51,
         52, 72, 83, 85, 35, 41, 44, 47, 51, 66, 71, 73, 74, 77, 78, 81, 85, 88, 91, 32, 33, 40, 41, 45, 59, 72, 75, 76,
         82, 90, 34, 39, 40, 41, 52, 54, 58, 60, 64, 65, 67, 69, 70, 72, 74, 83, 34, 35, 41, 42, 51, 54, 56, 64, 67, 71,
         77, 79, 86, 87, 40, 46, 47, 52, 56, 60, 61, 62, 65, 69, 73, 74, 77, 84, 87, 31, 38, 39, 43, 44, 45, 52, 55, 56,
         58, 60, 62, 63, 67, 68, 71, 81, 90, 33, 34, 36, 40, 49, 52, 55, 68, 77, 79, 81, 82, 87, 91, 43, 51, 53, 55, 56,
         65, 67, 75, 78, 85, 87, 91, 31, 33, 34, 55, 56, 64, 72, 74, 75, 87, 88, 90, 34, 38, 47, 52, 60, 65, 67, 73, 76,
         81, 90, 34, 39, 53, 56, 67, 71, 75, 82, 85, 86, 89, 32, 33, 37, 40, 43, 44, 47, 48, 51, 55, 63, 66, 71, 80, 36,
         37, 39, 46, 48, 55, 60, 63, 64, 65, 66, 73, 79, 86, 32, 34, 38, 43, 50, 53, 58, 59, 61, 62, 76, 80, 31, 35, 36,
         38, 43, 44, 45, 48, 56, 59, 60, 61, 62, 71, 80, 81, 82, 84, 86, 88, 89, 36, 37, 39, 43, 44, 46, 48, 49, 50, 56,
         57, 77, 80, 91, 31, 36, 49, 50, 52, 55, 57, 58, 60, 63, 65, 66, 69, 71, 72, 74, 75, 77, 79, 83, 91, 33, 35, 41,
         42, 48, 52, 63, 64, 73, 75, 77, 79, 84, 35, 38, 40, 45, 53, 54, 63, 65, 66, 69, 71, 73, 74, 77, 78, 81, 89, 91,
         43, 46, 47, 49, 51, 54, 55, 57, 58, 61, 65, 72, 77, 79, 85, 88, 90, 31, 36, 38, 41, 42, 55, 59, 65, 66, 69, 71,
         80, 84, 89, 91, 35, 36, 44, 46, 47, 50, 51, 60, 66, 70, 78, 79, 80, 82, 35, 41, 42, 48, 51, 54, 55, 64, 67, 68,
         69, 71, 72, 79, 81, 85, 86, 89, 90, 36, 45, 49, 51, 62, 63, 65, 67, 68, 73, 76, 78, 79, 82, 83, 85, 89, 32, 35,
         46, 51, 54, 57, 65, 66, 74, 78, 84, 85, 91, 43, 45, 51, 52, 53, 59, 60, 61, 63, 64, 74, 78, 79, 87, 97, 99,
         107, 110, 117, 118, 120, 121, 122, 124, 93, 97, 107, 114, 115, 99, 103, 105, 106, 114, 117, 92, 96, 102, 105,
         123, 125, 94, 97, 105, 118, 93, 94, 97, 116, 123, 100, 106, 110, 111, 112, 113, 114, 93, 98, 101, 102, 108,
         112, 115, 116, 120, 122, 97, 98, 104, 105, 109, 116, 124, 125, 100, 107, 108, 120, 122, 95, 96, 98, 100, 104,
         115, 123, 96, 99, 100, 101, 109, 115, 120, 118, 120, 124, 101, 106, 116, 118, 123, 124, 92, 93, 103, 107, 114,
         116, 123, 93, 99, 102, 108, 121, 123, 93, 100, 108, 110, 122, 125, 92, 94, 104, 106, 110, 112, 113, 116, 117,
         93, 98, 101, 103, 107, 119, 125, 100, 101, 103, 104, 106, 123, 125, 94, 96, 97, 104, 107, 114, 115, 116, 121,
         125, 94, 97, 102, 105, 109, 119, 124, 93, 98, 102, 108, 111, 117, 119, 123, 112, 118, 119, 92, 95, 98, 108,
         110, 113, 96, 113, 116, 92, 97, 100, 104, 121, 95, 97, 101, 106, 114, 117, 121, 123, 124, 92, 95, 100, 103,
         107, 115, 94, 95, 101, 108, 113, 117, 121, 124, 98, 104, 109, 110, 113, 116, 119, 92, 95, 101, 102, 110, 111,
         112, 113, 116, 117, 118, 119, 123, 125, 93, 102, 108, 111, 113, 119, 122, 124, 96, 101, 106, 114, 122, 125, 95,
         97, 101, 102, 103, 104, 115, 122, 92, 94, 105, 110, 119, 120, 123, 125, 93, 94, 97, 101, 102, 109, 115, 117,
         97, 105, 111, 117, 98, 99, 105, 109, 111, 114, 121, 99, 109, 110, 119, 105, 106, 107, 108, 110, 111, 114, 118,
         119, 94, 95, 101, 105, 108, 113, 121, 122, 94, 106, 109, 113, 114, 121, 122, 123, 100, 105, 111, 114, 120, 93,
         94, 104, 106, 107, 114, 116, 117, 121, 123, 97, 98, 102, 95, 104, 106, 108, 117, 120, 95, 101, 114, 115, 117,
         124, 98, 99, 100, 114, 124, 98, 107, 108, 110, 111, 113, 121, 92, 95, 96, 99, 102, 106, 107, 108, 116, 117, 98,
         100, 107, 112, 114, 115, 124, 100, 101, 103, 105, 106, 107, 114, 117, 123, 97, 98, 106, 108, 111, 112, 120,
         121, 92, 97, 98, 99, 103, 110, 117, 118, 93, 102, 104, 109, 112, 122, 124, 97, 99, 112, 114, 118, 121, 123, 93,
         94, 107, 108, 110, 115, 100, 115, 118, 93, 95, 101, 106, 108, 115, 117;
             int(1..854)]
letting course_load_Function1D be
        [5, 3, 5, 7, 4, 4, 4, 6, 5, 7, 5, 4, 7, 4, 6, 8, 4, 5, 3, 6, 3, 4, 4, 5, 4, 6, 7, 6, 4, 8, 6, 3, 7, 6, 6, 3, 7,
         4, 8, 8, 4, 6, 6, 8, 3, 6, 7, 5, 4, 4, 3, 4, 4, 3, 5, 5, 7, 7, 8, 7, 8, 4, 4, 5, 6, 5, 7, 5, 3, 4, 7, 4, 7, 6,
         3, 3, 3, 3, 3, 4, 3, 5, 8, 3, 5, 4, 7, 5, 3, 6, 6, 3, 3, 4, 7, 7, 5, 7, 4, 7, 7, 6, 4, 3, 4, 7, 6, 4, 3, 5, 3,
         5, 5, 6, 5, 7, 4, 6, 7, 5, 3, 8, 8, 6, 5;
             int(1..125)]
letting load_per_period_ub be 41
letting load_per_period_lb be 5
letting courses_per_period_ub be 10
letting courses_per_period_lb be 4
letting fin1 be 854
letting fin2 be 125
letting fin3 be 8
